c CNF file corresponding to a (partial) station packing problem.
p cnf 1523 184
1 2 3 4 5 6 7 8 9 10 11 12 13 14 0
-1 -2 0
-1 -3 0
-1 -4 0
-1 -5 0
-1 -6 0
-1 -7 0
-1 -8 0
-1 -9 0
-1 -10 0
-1 -11 0
-1 -12 0
-1 -13 0
-1 -14 0
-2 -3 0
-2 -4 0
-2 -5 0
-2 -6 0
-2 -7 0
-2 -8 0
-2 -9 0
-2 -10 0
-2 -11 0
-2 -12 0
-2 -13 0
-2 -14 0
-3 -4 0
-3 -5 0
-3 -6 0
-3 -7 0
-3 -8 0
-3 -9 0
-3 -10 0
-3 -11 0
-3 -12 0
-3 -13 0
-3 -14 0
-4 -5 0
-4 -6 0
-4 -7 0
-4 -8 0
-4 -9 0
-4 -10 0
-4 -11 0
-4 -12 0
-4 -13 0
-4 -14 0
-5 -6 0
-5 -7 0
-5 -8 0
-5 -9 0
-5 -10 0
-5 -11 0
-5 -12 0
-5 -13 0
-5 -14 0
-6 -7 0
-6 -8 0
-6 -9 0
-6 -10 0
-6 -11 0
-6 -12 0
-6 -13 0
-6 -14 0
-7 -8 0
-7 -9 0
-7 -10 0
-7 -11 0
-7 -12 0
-7 -13 0
-7 -14 0
-8 -9 0
-8 -10 0
-8 -11 0
-8 -12 0
-8 -13 0
-8 -14 0
-9 -10 0
-9 -11 0
-9 -12 0
-9 -13 0
-9 -14 0
-10 -11 0
-10 -12 0
-10 -13 0
-10 -14 0
-11 -12 0
-11 -13 0
-11 -14 0
-12 -13 0
-12 -14 0
-13 -14 0
1510 1511 1512 1513 1514 1515 1516 1517 1518 1519 1520 1521 1522 1523 0
-1510 -1511 0
-1510 -1512 0
-1510 -1513 0
-1510 -1514 0
-1510 -1515 0
-1510 -1516 0
-1510 -1517 0
-1510 -1518 0
-1510 -1519 0
-1510 -1520 0
-1510 -1521 0
-1510 -1522 0
-1510 -1523 0
-1511 -1512 0
-1511 -1513 0
-1511 -1514 0
-1511 -1515 0
-1511 -1516 0
-1511 -1517 0
-1511 -1518 0
-1511 -1519 0
-1511 -1520 0
-1511 -1521 0
-1511 -1522 0
-1511 -1523 0
-1512 -1513 0
-1512 -1514 0
-1512 -1515 0
-1512 -1516 0
-1512 -1517 0
-1512 -1518 0
-1512 -1519 0
-1512 -1520 0
-1512 -1521 0
-1512 -1522 0
-1512 -1523 0
-1513 -1514 0
-1513 -1515 0
-1513 -1516 0
-1513 -1517 0
-1513 -1518 0
-1513 -1519 0
-1513 -1520 0
-1513 -1521 0
-1513 -1522 0
-1513 -1523 0
-1514 -1515 0
-1514 -1516 0
-1514 -1517 0
-1514 -1518 0
-1514 -1519 0
-1514 -1520 0
-1514 -1521 0
-1514 -1522 0
-1514 -1523 0
-1515 -1516 0
-1515 -1517 0
-1515 -1518 0
-1515 -1519 0
-1515 -1520 0
-1515 -1521 0
-1515 -1522 0
-1515 -1523 0
-1516 -1517 0
-1516 -1518 0
-1516 -1519 0
-1516 -1520 0
-1516 -1521 0
-1516 -1522 0
-1516 -1523 0
-1517 -1518 0
-1517 -1519 0
-1517 -1520 0
-1517 -1521 0
-1517 -1522 0
-1517 -1523 0
-1518 -1519 0
-1518 -1520 0
-1518 -1521 0
-1518 -1522 0
-1518 -1523 0
-1519 -1520 0
-1519 -1521 0
-1519 -1522 0
-1519 -1523 0
-1520 -1521 0
-1520 -1522 0
-1520 -1523 0
-1521 -1522 0
-1521 -1523 0
-1522 -1523 0
